15 5 190
NODE_COORD_SECTION
1 37 52
2 49 49
3 52 64
4 20 26
5 40 30
6 21 47
7 17 63
8 31 62
9 52 33
10 51 21
11 42 41
12 31 32
13 5 25
14 12 42
15 36 16
SET_SECTION
1 5 2 3 4 5
2 5 4 5 6 7 8
3 5 7 8 9 10 11
4 5 10 11 12 13 14
5 5 13 14 15
